<number of tasks>
50

<cycle time>
1000

<order strength>
0.198


<task times>
1 52
2 48
3 141
4 299
5 151
6 175
7 44
8 88
9 166
10 51
11 146
12 120
13 83
14 165
15 200
16 161
17 101
18 85
19 120
20 73
21 232
22 142
23 30
24 160
25 24
26 279
27 42
28 115
29 249
30 168
31 33
32 167
33 95
34 212
35 159
36 28
37 132
38 108
39 210
40 201
41 92
42 212
43 102
44 132
45 70
46 259
47 160
48 64
49 190
50 181

<precedence relations>
3,11
3,28
4,6
4,8
4,9
4,12
5,7
5,10
5,29
6,16
7,18
7,19
8,13
9,18
10,17
10,20
11,15
11,21
12,14
14,24
14,25
15,23
15,24
18,26
20,22
24,29
24,32
25,30
26,27
26,28
26,31
30,36
32,33
32,34
32,35
32,37
34,38
34,39
34,45
35,43
36,40
36,41
37,42
37,44
39,50
40,45
40,49
40,50
42,46
42,47
43,48

<end>
